46
1000
200	1
199	3
198	3
197	3
196	4
195	5
194	1
193	6
192	3
191	1
190	4
189	2
188	1
187	1
186	1
185	3
184	4
183	1
181	1
180	5
179	4
178	2
176	1
175	1
174	3
173	1
172	1
170	3
167	2
166	2
165	1
164	3
163	1
162	5
161	5
160	3
159	3
158	2
157	2
156	1
155	3
154	4
153	3
152	3
151	3
150	5
